param set_len = 30;
param target := 211868123;
set values := 28094817, 12033023, 13279241, 13787337, 3764606, 2138119, 32025211, 4408807, 6770761, 31462496, 19485186, 10779867, 4618776, 1137280, 12764808, 4166832, 10640737, 32468267, 5540261, 4301447, 31962246, 12779219, 6694946, 10344571, 29128142, 18359454, 1648933, 13793474, 32735605, 23712964, ;
